(set-logic QF_UF)
(declare-fun A0 () Bool)
(declare-fun A1 () Bool)
(declare-fun A2 () Bool)
(declare-fun A3 () Bool)
(declare-fun A4 () Bool)
(declare-fun A6 () Bool)
(declare-fun A7 () Bool)
(declare-fun A8 () Bool)
(declare-fun A10 () Bool)
(declare-fun A11 () Bool)
(declare-fun A12 () Bool)
(declare-fun A13 () Bool)
(declare-fun A14 () Bool)
(declare-fun A15 () Bool)
(declare-fun A16 () Bool)
(declare-fun A17 () Bool)
(declare-fun A18 () Bool)
(declare-fun A20 () Bool)
(declare-fun A21 () Bool)
(declare-fun A22 () Bool)
(declare-fun A23 () Bool)
(assert (let ((.def_0 (not A11))) (let ((.def_1 (or A1 .def_0))) (let ((.def_2 (not .def_1))) (let ((.def_3 (not A2))) (let ((.def_4 (and A6 .def_3))) (let ((.def_5 (not .def_4))) (let ((.def_6 (or .def_5 .def_2))) (let ((.def_7 (not .def_6))) (let ((.def_8 (or A23 A18))) (let ((.def_9 (not A12))) (let ((.def_10 (and .def_0 .def_9))) (let ((.def_11 (or .def_10 .def_8))) (let ((.def_12 (not .def_11))) (let ((.def_13 (or .def_12 .def_7))) (let ((.def_14 (or A14 A18))) (let ((.def_15 (not A3))) (let ((.def_16 (not A17))) (let ((.def_17 (or .def_16 .def_15))) (let ((.def_18 (or .def_17 .def_14))) (let ((.def_19 (not .def_18))) (let ((.def_20 (= A18 A8))) (let ((.def_21 (not .def_20))) (let ((.def_22 (not A15))) (let ((.def_23 (or A11 .def_22))) (let ((.def_24 (or .def_23 .def_21))) (let ((.def_25 (and .def_24 .def_19))) (let ((.def_26 (not .def_25))) (let ((.def_27 (and .def_26 .def_13))) (let ((.def_28 (not .def_27))) (let ((.def_29 (not A0))) (let ((.def_30 (or .def_29 A16))) (let ((.def_31 (and A6 A3))) (let ((.def_32 (not .def_31))) (let ((.def_33 (and .def_32 .def_30))) (let ((.def_34 (not A23))) (let ((.def_35 (and .def_34 A13))) (let ((.def_36 (not A1))) (let ((.def_37 (and .def_36 A22))) (let ((.def_38 (not .def_37))) (let ((.def_39 (or .def_38 .def_35))) (let ((.def_40 (not .def_39))) (let ((.def_41 (or .def_40 .def_33))) (let ((.def_42 (not .def_41))) (let ((.def_43 (or A10 A21))) (let ((.def_44 (not .def_43))) (let ((.def_45 (not A20))) (let ((.def_46 (and A1 .def_45))) (let ((.def_47 (or .def_46 .def_44))) (let ((.def_48 (not .def_47))) (let ((.def_49 (or A2 A22))) (let ((.def_50 (not .def_49))) (let ((.def_51 (and A15 .def_9))) (let ((.def_52 (not .def_51))) (let ((.def_53 (and .def_52 .def_50))) (let ((.def_54 (and .def_53 .def_48))) (let ((.def_55 (not .def_54))) (let ((.def_56 (and .def_55 .def_42))) (let ((.def_57 (not .def_56))) (let ((.def_58 (and .def_57 .def_28))) (let ((.def_59 (not .def_58))) (let ((.def_60 (and A12 A4))) (let ((.def_61 (not .def_60))) (let ((.def_62 (not A21))) (let ((.def_63 (not A13))) (let ((.def_64 (and .def_63 .def_62))) (let ((.def_65 (and .def_64 .def_61))) (let ((.def_66 (not A22))) (let ((.def_67 (or A2 .def_66))) (let ((.def_68 (not A8))) (let ((.def_69 (and .def_68 .def_62))) (let ((.def_70 (not .def_69))) (let ((.def_71 (and .def_70 .def_67))) (let ((.def_72 (not .def_71))) (let ((.def_73 (or .def_72 .def_65))) (let ((.def_74 (not .def_73))) (let ((.def_75 (or A23 A6))) (let ((.def_76 (not .def_75))) (let ((.def_77 (or .def_15 A7))) (let ((.def_78 (or .def_77 .def_76))) (let ((.def_79 (not A7))) (let ((.def_80 (and A8 .def_79))) (let ((.def_81 (not A18))) (let ((.def_82 (and .def_15 .def_81))) (let ((.def_83 (and .def_82 .def_80))) (let ((.def_84 (= .def_83 .def_78))) (let ((.def_85 (not .def_84))) (let ((.def_86 (and .def_85 .def_74))) (let ((.def_87 (or .def_62 A2))) (let ((.def_88 (not .def_87))) (let ((.def_89 (or .def_0 A16))) (let ((.def_90 (not .def_89))) (let ((.def_91 (and .def_90 .def_88))) (let ((.def_92 (and A14 .def_81))) (let ((.def_93 (= .def_79 A8))) (let ((.def_94 (or .def_93 .def_92))) (let ((.def_95 (or .def_94 .def_91))) (let ((.def_96 (not .def_95))) (let ((.def_97 (and A8 .def_29))) (let ((.def_98 (not .def_97))) (let ((.def_99 (= .def_63 A11))) (let ((.def_100 (not .def_99))) (let ((.def_101 (or .def_100 .def_98))) (let ((.def_102 (not .def_101))) (let ((.def_103 (or .def_62 .def_34))) (let ((.def_104 (and .def_15 A10))) (let ((.def_105 (not .def_104))) (let ((.def_106 (and .def_105 .def_103))) (let ((.def_107 (or .def_106 .def_102))) (let ((.def_108 (or .def_107 .def_96))) (let ((.def_109 (and .def_108 .def_86))) (let ((.def_110 (or .def_109 .def_59))) .def_110))))))))))))))))))))))))))))))))))))))))))))))))))))))))))))))))))))))))))))))))))))))))))))))))))))))))))))))))
(check-sat)
